50 38
5 4 29 38 48 41
3 7 8 40
5 45 29 40 23 15
5 28 46 29 7 40
3 37 21 40
3 36 7 12
6 4 5 7 9 50 34
3 44 36 47
5 12 13 32 50 3
6 44 48 20 12 31 50
8 5 18 36 6 48 49 3 43
8 26 36 47 49 9 30 23 33
3 9 15 42
6 44 4 26 36 29 23
2 1 14
5 45 30 12 22 34
7 26 20 30 31 22 13 34
4 36 47 49 10
3 23 16 43
4 5 46 8 24
4 5 49 14 15
8 35 18 19 10 21 41 14 15
4 5 12 14 25
4 40 31 1 23
7 18 46 47 10 12 32 16
6 44 29 8 13 1 34
7 18 6 48 10 20 40 31
7 27 45 49 31 23 24 34
4 26 38 31 33
3 44 7 29
2 7 10
4 39 10 23 33
4 26 45 36 50
3 50 16 25
8 44 35 5 7 8 11 30 21
7 44 38 31 32 2 16 34
2 45 7
8 45 6 19 9 12 14 50 25
